
Gurobi 10.0.1 (win64) logging started Sat May 20 17:34:44 2023

Set parameter LogFile to value "logFiles/A-2L-C/A-2L-6U-15F-15V-240D-basic-heuristic.log"
Gurobi Optimizer version 10.0.1 build v10.0.1rc0 (win64)

CPU model: Intel(R) Core(TM) i7-10700 CPU @ 2.90GHz, instruction set [SSE2|AVX|AVX2]
Thread count: 8 physical cores, 16 logical processors, using up to 16 threads

Optimize a model with 83361 rows, 940697 columns and 5811247 nonzeros
Model fingerprint: 0x44c7b8dc
Variable types: 2188 continuous, 938509 integer (938509 binary)
Coefficient statistics:
  Matrix range     [1e+00, 2e+05]
  Objective range  [4e+01, 3e+07]
  Bounds range     [1e+00, 1e+00]
  RHS range        [1e+00, 5e+06]
Presolve removed 51190 rows and 40832 columns (presolve time = 5s) ...
Presolve removed 51110 rows and 40752 columns
Presolve time: 9.90s
Presolved: 32251 rows, 899945 columns, 4545084 nonzeros
Variable types: 2219 continuous, 897726 integer (897689 binary)
Deterministic concurrent LP optimizer: primal simplex, dual simplex, and barrier
Showing barrier log only...

Root barrier log...

Ordering time: 1.66s

Barrier statistics:
 AA' NZ     : 2.272e+06
 Factor NZ  : 2.202e+07 (roughly 600 MB of memory)
 Factor Ops : 5.951e+10 (less than 1 second per iteration)
 Threads    : 5

                  Objective                Residual
Iter       Primal          Dual         Primal    Dual     Compl     Time
   0  -1.17189475e+17  3.85217600e+12  1.27e+10 5.98e+04  3.26e+11    19s
   1  -2.53595081e+16  6.66587518e+12  2.76e+09 4.60e+05  7.16e+10    20s
   2  -3.85764732e+15  7.37208332e+12  4.22e+08 1.63e-09  1.11e+10    21s
   3  -5.07775761e+13  4.93633977e+12  5.56e+06 1.63e-09  1.48e+08    22s
   4  -5.22827355e+12  1.07486743e+12  5.70e+05 1.63e-09  1.59e+07    24s
   5  -3.72916998e+11  7.56735378e+11  4.08e+04 1.28e-09  1.52e+06    26s
   6  -1.23949779e+11  4.23119778e+11  1.37e+04 1.16e-09  5.74e+05    28s
   7  -2.16908304e+10  1.88125053e+11  2.57e+03 2.74e-08  1.59e+05    30s
   8  -7.58100661e+09  8.17135089e+10  1.04e+03 1.79e-08  6.39e+04    31s
   9  -2.32225134e+09  5.40067760e+10  4.68e+02 1.81e-08  3.73e+04    33s
  10  -2.81777415e+08  4.31778196e+10  2.53e+02 1.73e-08  2.73e+04    35s
  11   3.37254908e+08  3.26185508e+10  1.89e+02 1.27e-08  2.03e+04    36s
  12   5.24925688e+08  3.16548752e+10  1.69e+02 1.03e-08  1.94e+04    38s
  13   1.10668472e+09  2.38962306e+10  1.09e+02 1.18e-08  1.40e+04    40s
  14   1.62413317e+09  1.56111384e+10  5.53e+01 1.63e-08  8.48e+03    43s
  15   1.88179295e+09  1.03480769e+10  2.91e+01 2.18e-08  5.13e+03    45s
  16   1.95478681e+09  6.81172742e+09  2.23e+01 3.52e-08  3.05e+03    47s
  17   2.01011720e+09  5.06604948e+09  1.75e+01 4.89e-08  1.98e+03    49s
  18   2.04922513e+09  4.55394205e+09  1.45e+01 5.17e-08  1.62e+03    51s
  19   2.08284067e+09  3.97289954e+09  1.19e+01 5.96e-08  1.23e+03    53s
  20   2.14145683e+09  3.53879827e+09  7.55e+00 5.22e-08  8.81e+02    56s
  21   2.18664976e+09  3.25359325e+09  3.62e+00 5.99e-08  6.39e+02    58s
  22   2.20549782e+09  2.86803342e+09  2.34e+00 6.63e-08  3.92e+02    60s
  23   2.21504283e+09  2.68575204e+09  1.79e+00 5.57e-08  2.77e+02    63s
  24   2.22462398e+09  2.58089666e+09  1.25e+00 5.23e-08  2.07e+02    65s
  25   2.22492431e+09  2.54366208e+09  1.24e+00 5.55e-08  1.86e+02    66s
  26   2.23690435e+09  2.51714828e+09  7.50e-01 5.63e-08  1.61e+02    68s
  27   2.24188072e+09  2.44246493e+09  5.69e-01 6.13e-08  1.15e+02    71s
  28   2.24859684e+09  2.40206723e+09  4.08e-01 5.03e-08  8.73e+01    73s
  29   2.25129740e+09  2.35388790e+09  3.14e-01 5.86e-08  5.83e+01    75s
  30   2.25882981e+09  2.33114771e+09  1.62e-01 5.99e-08  4.08e+01    78s
  31   2.26100996e+09  2.31484030e+09  1.31e-01 5.96e-08  3.04e+01    80s
  32   2.26401427e+09  2.30569856e+09  9.39e-02 6.01e-08  2.35e+01    82s
  33   2.26599274e+09  2.30082907e+09  7.79e-02 5.44e-08  1.96e+01    84s
  34   2.26933999e+09  2.29539118e+09  5.20e-02 4.90e-08  1.47e+01    86s
  35   2.27186999e+09  2.29199054e+09  3.48e-02 6.07e-08  1.13e+01    89s
  36   2.27210791e+09  2.28909516e+09  3.30e-02 7.40e-08  9.55e+00    91s
  37   2.27329075e+09  2.28722078e+09  2.57e-02 6.44e-08  7.83e+00    93s
  38   2.27509412e+09  2.28542611e+09  1.51e-02 6.12e-08  5.80e+00    95s
  39   2.27576084e+09  2.28366359e+09  1.17e-02 6.71e-08  4.43e+00    98s
  40   2.27640562e+09  2.28196509e+09  8.62e-03 6.71e-08  3.12e+00   100s
  41   2.27722532e+09  2.28103210e+09  4.96e-03 5.96e-08  2.13e+00   102s
  42   2.27761761e+09  2.28017211e+09  3.30e-03 7.08e-08  1.43e+00   104s
  43   2.27783566e+09  2.27999713e+09  2.40e-03 6.36e-08  1.21e+00   106s
  44   2.27804124e+09  2.27947669e+09  1.59e-03 6.70e-08  8.05e-01   108s
  45   2.27822761e+09  2.27914480e+09  8.86e-04 6.71e-08  5.14e-01   111s
  46   2.27832161e+09  2.27897625e+09  5.58e-04 6.97e-08  3.67e-01   113s
  47   2.27840279e+09  2.27871111e+09  2.69e-04 6.98e-08  1.73e-01   115s
  48   2.27843774e+09  2.27864631e+09  1.50e-04 6.46e-08  1.17e-01   117s
  49   2.27845884e+09  2.27858715e+09  8.15e-05 6.33e-08  7.18e-02   119s
  50   2.27846639e+09  2.27855106e+09  5.51e-05 7.45e-08  4.74e-02   120s
  51   2.27847871e+09  2.27852535e+09  2.02e-05 1.03e-07  2.61e-02   122s
  52   2.27848292e+09  2.27850171e+09  9.45e-06 9.64e-08  1.05e-02   124s
  53   2.27848552e+09  2.27849757e+09  2.85e-06 9.80e-08  6.72e-03   126s
  54   2.27848619e+09  2.27849161e+09  1.36e-06 1.12e-07  3.02e-03   128s
  55   2.27848661e+09  2.27848786e+09  4.18e-07 1.02e-07  6.98e-04   130s
  56   2.27848685e+09  2.27848700e+09  1.30e-07 9.69e-08  8.24e-05   133s
  57   2.27848688e+09  2.27848689e+09  3.96e-08 1.01e-07  1.47e-06   137s
  58   2.27848689e+09  2.27848689e+09  5.70e-09 1.21e-07  4.50e-09   139s

Barrier solved model in 58 iterations and 139.16 seconds (82.71 work units)
Optimal objective 2.27848689e+09


Root crossover log...

   25004 DPushes remaining with DInf 0.0000000e+00               139s
     162 DPushes remaining with DInf 0.0000000e+00               140s
       0 DPushes remaining with DInf 0.0000000e+00               144s

    1220 PPushes remaining with PInf 2.8850905e-04               144s
       0 PPushes remaining with PInf 0.0000000e+00               144s

  Push phase complete: Pinf 0.0000000e+00, Dinf 1.7591667e-01    144s


Root simplex log...

Iteration    Objective       Primal Inf.    Dual Inf.      Time
   26226    2.2784869e+09   0.000000e+00   1.759166e-01    144s
   26232    2.2784869e+09   0.000000e+00   0.000000e+00    145s
Concurrent spin time: 7.65s

Solved with barrier
   26232    2.2784869e+09   0.000000e+00   0.000000e+00    153s

Root relaxation: objective 2.278487e+09, 26232 iterations, 140.35 seconds (57.53 work units)
Total elapsed time = 155.02s

    Nodes    |    Current Node    |     Objective Bounds      |     Work
 Expl Unexpl |  Obj  Depth IntInf | Incumbent    BestBd   Gap | It/Node Time

     0     0 2.2785e+09    0 1462          - 2.2785e+09      -     -  158s
     0     0 2.2783e+09    0 1298          - 2.2783e+09      -     -  523s
     0     0 2.2783e+09    0 1293          - 2.2783e+09      -     -  523s
     0     0 2.2782e+09    0 1365          - 2.2782e+09      -     - 1197s
     0     0 2.2782e+09    0 1383          - 2.2782e+09      -     - 1320s
     0     0 2.2782e+09    0 1456          - 2.2782e+09      -     - 1379s
     0     0 2.2782e+09    0 1425          - 2.2782e+09      -     - 1389s
     0     0 2.2781e+09    0 1333          - 2.2781e+09      -     - 1610s
     0     0 2.2781e+09    0 1307          - 2.2781e+09      -     - 3063s
     0     0 2.2781e+09    0 1318          - 2.2781e+09      -     - 3072s
     0     0 2.2781e+09    0 1351          - 2.2781e+09      -     - 3241s
     0     0 2.2781e+09    0 1360          - 2.2781e+09      -     - 5304s
     0     0 2.2781e+09    0 1364          - 2.2781e+09      -     - 5323s
     0     0 2.2781e+09    0 1319          - 2.2781e+09      -     - 5395s
     0     0 2.2781e+09    0 1325          - 2.2781e+09      -     - 7308s
     0     0 2.2781e+09    0 1386          - 2.2781e+09      -     - 7367s
     0     0 2.2781e+09    0 1399          - 2.2781e+09      -     - 8764s
     0     0 2.2781e+09    0 1423          - 2.2781e+09      -     - 8778s
     0     0 2.2781e+09    0 1439          - 2.2781e+09      -     - 10039s
     0     0 2.2781e+09    0 1347          - 2.2781e+09      -     - 10068s
     0     0 2.2781e+09    0 1323          - 2.2781e+09      -     - 10072s

Cutting planes:
  Cover: 19
  Implied bound: 17
  MIR: 49
  Flow cover: 107
  GUB cover: 2
  Network: 1
  RLT: 16
  Relax-and-lift: 8

Explored 1 nodes (141693 simplex iterations) in 10800.08 seconds (13528.16 work units)
Thread count was 16 (of 16 available processors)

Solution count 0

Time limit reached
Best objective -, best bound 2.278068472770e+09, gap -
IIS computation: initial model status unknown, solving to determine model status
Presolve removed 51190 rows and 40832 columns (presolve time = 5s) ...
Presolve removed 51110 rows and 40752 columns
Presolve time: 9.76s
Presolved: 32251 rows, 899945 columns, 4545084 nonzeros
Variable types: 2219 continuous, 897726 integer (897689 binary)
Deterministic concurrent LP optimizer: primal simplex, dual simplex, and barrier
Showing barrier log only...

Root barrier log...

Ordering time: 1.57s

Barrier statistics:
 AA' NZ     : 2.272e+06
 Factor NZ  : 2.202e+07 (roughly 600 MB of memory)
 Factor Ops : 5.951e+10 (less than 1 second per iteration)
 Threads    : 5

                  Objective                Residual
Iter       Primal          Dual         Primal    Dual     Compl     Time
   0  -0.00000000e+00  3.05753400e+05  1.27e+10 0.00e+00  2.48e+04    19s
   1  -0.00000000e+00  5.09870165e+05  2.76e+09 3.37e-02  5.45e+03    20s
   2  -0.00000000e+00  5.52302448e+05  1.64e+08 1.25e-16  3.25e+02    21s
   3  -0.00000000e+00  3.25636230e+05  3.87e+06 1.11e-16  7.87e+00    22s
   4  -0.00000000e+00  5.83170611e+04  4.73e+05 7.75e-17  7.50e-01    24s
   5  -0.00000000e+00  2.65852065e+04  3.36e+04 5.19e-17  4.68e-02    25s
   6  -0.00000000e+00  5.61049807e+03  9.96e+03 9.15e-08  7.81e-03    27s
   7  -0.00000000e+00  1.37466346e+03  1.23e+03 3.86e-08  1.11e-03    28s
   8  -0.00000000e+00  3.92178701e+02  4.82e+02 3.56e-08  3.28e-04    29s
   9  -0.00000000e+00  2.49947397e+02  2.86e+02 2.85e-08  2.02e-04    30s
  10  -0.00000000e+00  1.78873334e+02  1.64e+02 2.41e-08  1.35e-04    31s
  11  -0.00000000e+00  9.52366897e+01  9.07e+01 1.72e-08  7.20e-05    32s
  12  -0.00000000e+00  5.32477075e+01  3.31e+01 1.24e-08  3.67e-05    33s
  13  -0.00000000e+00  2.87011727e+01  2.28e+01 7.43e-09  2.08e-05    35s
  14  -0.00000000e+00  1.41002059e+01  1.85e+01 1.67e-08  1.15e-05    36s
  15  -0.00000000e+00  8.40767366e+00  1.45e+01 2.72e-08  7.34e-06    37s
  16  -0.00000000e+00  5.67677886e+00  1.30e+01 4.17e-08  5.33e-06    38s
  17  -0.00000000e+00  2.32232289e+00  6.81e+00 6.79e-08  2.25e-06    39s
  18  -0.00000000e+00  9.35255720e-01  1.48e+00 6.31e-08  7.52e-07    41s
  19  -0.00000000e+00  1.07014026e-01  2.58e-02 8.07e-09  7.52e-08    42s
  20  -0.00000000e+00  9.36195838e-04  3.17e-05 6.91e-11  6.60e-10    44s
  21  -0.00000000e+00  7.30934517e-07  3.33e-07 5.38e-14  5.15e-13    47s
  22  -0.00000000e+00  2.68088740e-12  7.91e-11 1.53e-16  1.90e-18    49s

Barrier solved model in 22 iterations and 48.63 seconds (58.74 work units)
Optimal objective -0.00000000e+00

  Building initial crossover basis                                56s
  Building initial crossover basis                                61s
  Building initial crossover basis                                66s
  Building initial crossover basis                                71s
  Building initial crossover basis                                75s
  Building initial crossover basis                                80s
  Building initial crossover basis                                86s
  Building initial crossover basis                                91s
  Building initial crossover basis                                96s
  Building initial crossover basis                               100s
  Building initial crossover basis                               105s
  Building initial crossover basis                               111s
  Building initial crossover basis                               116s
  Building initial crossover basis                               121s
  Building initial crossover basis                               127s

Root crossover log...

   25591 DPushes remaining with DInf 3.3080795e+01               127s
       0 DPushes remaining with DInf 0.0000000e+00               127s

     325 PPushes remaining with PInf 2.4748562e-03               127s
       0 PPushes remaining with PInf 0.0000000e+00               127s

  Push phase complete: Pinf 0.0000000e+00, Dinf 0.0000000e+00    127s


Root simplex log...

Iteration    Objective       Primal Inf.    Dual Inf.      Time
    2179   -0.0000000e+00   0.000000e+00   0.000000e+00    128s
Concurrent spin time: 2.10s

Solved with barrier
    2179   -0.0000000e+00   0.000000e+00   0.000000e+00    130s

Root relaxation: objective -0.000000e+00, 2179 iterations, 116.54 seconds (83.29 work units)
Total elapsed time = 130.11s

    Nodes    |    Current Node    |     Objective Bounds      |     Work
 Expl Unexpl |  Obj  Depth IntInf | Incumbent    BestBd   Gap | It/Node Time

     0     0   -0.00000    0  776          -   -0.00000      -     -  151s

Explored 1 nodes (10307 simplex iterations) in 151.21 seconds (143.74 work units)
Thread count was 16 (of 16 available processors)

Solution count 0

Solve interrupted
Best objective -, best bound -0.000000000000e+00, gap -
IIS runtime: 151.33 seconds (143.74 work units)
